StudentsNr = 10;
InstructorsNr = 33;
DaysNr = 1;
SlotsPerDay = 40;
AvailabilitySlotsLenght = 40;
RoomNr = 1;
ProgrammNr = 1;
DegreeNr = 3;
RolesNr = 0;
CoursesNr = 8;
InstructorsProgramm = [{1}, {1}, {1}, {1}, {1}, {1}, {1}, {1}, {1}, {1}, {1}, {1}, {1}, {1}, {1}, {1}, {1}, {1}, {1}, {1}, {1}, {1}, {1}, {1}, {1}, {1}, {1}, {1}, {1}, {1}, {1}, {1}, {1}];
InstructorRolesPerProgramm = array2d(1..ProgrammNr,{},[]);
InstructorsAvailability = [|0, |0, |0, |1, |1, |0, |1, |1, |1, |0, |0, |1, |0, |1, |1, |1, |1, |0, |1, |0, |1, |1, |0, |0, |1, |0, |0, |0, |0, |1, |0, |0, |1|];
StudentsProgramm = [1, 1, 1, 1, 1, 1, 1, 1, 1, 1];
StudentsDegree = [3, 1, 2, 2, 2, 2, 2, 3, 1, 1];
StudentsSupervisorId = [9, 15, 33, 21, 10, 18, 20, 3, 16, 27];
StudentsCourseIds = [{4}, {5, 6, 8}, {3, 5, 6, 7, 8}, {1, 3, 5, 6, 7}, {2, 4, 5, 6, 8}, {3, 4, 6, 7, 8}, {1, 2, 3, 7, 8}, {2}, {1, 6, 7}, {5, 7, 8}];
StudentsAvailability = [|1, |0, |0, |0, |1, |0, |0, |0, |0, |0|];
TheoryticalMinCard = [2, 3, 5, 5, 5, 5, 5, 1, 4, 3];
CoursesInstructorIds = [{2, 3, 4, 7, 14, 15, 17, 18, 19, 22, 23, 24, 25, 26, 27, 29, 32, 33}, {1, 2, 3, 4, 6, 7, 8, 11, 12, 15, 18, 20, 21, 23, 24, 25, 26, 28, 31, 33}, {4, 15, 24, 27, 31}, {13, 14, 16, 22}, {1, 6, 10, 11, 12, 13, 15, 16, 17, 18, 19, 22, 24, 26, 27, 29, 30, 31, 32, 33}, {7, 10, 14, 15, 21, 26, 27, 28, 30, 31, 32, 33}, {10, 13, 19, 23, 30, 31, 32}, {8, 10, 11, 12, 13, 15, 16, 17, 18, 23, 28, 32}];
RolesDemands = [];
RolesContinuity = [];
ExamLen = [1, 2, 1, 1, 1, 1, 1, 1, 2, 2];
LunchTsMinLen = 1;
LunchStarts = [18..25];
SupervisorAvailable = 5;
OptimalLunchLenght = [1, 1];
OptimalStartTs = [0, 0];
OptimalFinishTs = [0, 40];
MinimizeRooms = 500;
RolesSoftContinuity = array2d(1..2,{},[]);
SameDegreeInRoom = 10;
Mergeability = 1;
